NAME : XML100_3352_09
DIMENSION : 101
NB_CLUSTERS : 3
CLUSTERING_ALG : KMedoids
CLUSTERING_PARAMS : k(2)
CLUSTERS
1 0
2 1 3 4 5 6 7 8 9 10 11 12 13 14 15 16 17 19 20 21 23 24 25 27 28 29 30 31 32 34 35 36 38 39 40 41 43 44 46 47 48 50 51 53 54 56 59 61 64 65 66 68 71 73 74 75 76 77 78 81 82 84 85 86 87 88 89 92 93 95 97 98 100
3 2 18 22 26 33 37 42 45 49 52 55 57 58 60 62 63 67 69 70 72 79 80 83 90 91 94 96 99
EOF